# Solution for model count
# Objective value = 9
z#1 1
z#2 0
z#3 1
z#4 1
z#5 0
z#6 0
z#7 0
z#8 1
z#9 1
z#10 0
z#11 1
z#12 0
z#13 0
z#14 0
z#15 0
z#16 0
z#17 1
z#18 0
z#19 0
z#20 0
z#21 0
z#22 1
z#23 0
z#24 1
x#24 2746
x#23 0
x#22 1059
x#21 0
x#20 0
x#19 0
x#18 0
x#17 2549
x#16 0
x#15 0
x#14 0
x#13 0
x#12 0
x#11 666
x#10 0
x#9 1188
x#8 673
x#7 0
x#6 0
x#5 0
x#4 900
x#3 149
x#2 0
x#1 70
